38
Properties=species:S:1:pos:R:3:move_mask:L:1:energies:R:1:forces:R:3:charge:R:1 alpha-O=T cluster=T from=T real=T IZA=T CHA=T 6-ring=T (Fe,oxo=T first)=T energy=-2634.811588379593 free_energy=-2634.811588379593 dipole="4.261065231813761e-05 -0.3568315188387556 -0.16183515020255912" pbc="F F F"
Fe      13.67501093      -0.10193716       1.71752582  T     -76.91250327      -0.00006076      -0.04681748      -0.01051929       1.45847301
O       13.67499097      -0.09065869       0.10123121  T    -112.66566284       0.00004005      -0.03504157      -0.00206729      -0.64675267
Si      12.12288800       2.68123200       1.55201200  F     -53.98622859       0.77337499       0.31901741      -0.05480847       0.74400137
Si      15.22711300       2.68123200       1.55201200  F     -53.98614604      -0.77354555       0.31840520      -0.05457891       0.74400014
Al      16.77307100       0.00355300       1.55201200  F     -38.14538338      -1.25281760       0.02411606       0.80249998       0.49069839
Si      15.22095900      -2.68478500       1.55201200  F     -53.97308999      -0.38228021      -0.75560366      -0.24340130       0.74769662
Si      12.12904100      -2.68478500       1.55201200  F     -53.97313695       0.38269305      -0.75614922      -0.24369069       0.74769476
Al      10.57692900       0.00355300       1.55201200  F     -38.14535538       1.25300132       0.02425427       0.80246661       0.49069639
O       13.67499598       3.00953853       1.96506972  T    -111.69893251       0.00036105      -0.01601825      -0.03885533      -0.47862283
O       15.39533840       1.11310021       1.91234738  T    -113.13474865      -0.01610261       0.05925759      -0.01086096      -0.53806432
O       15.88944975      -1.37088924       2.11888349  T    -111.76251949       0.00857660       0.03757136       0.01483995      -0.48719734
O       13.67500479      -2.29038947       1.87578356  T    -113.39089899      -0.00020937       0.06182015       0.03875727      -0.55442985
O       11.46053670      -1.37090854       2.11885255  T    -111.76242197      -0.00885213       0.03833425       0.01521887      -0.48719106
O       11.95468697       1.11312626       1.91234116  T    -113.13473386       0.01569865       0.05804115      -0.01065603      -0.53806411
O       11.23606400       3.67248200       2.46165900  F    -111.63401053       0.28713702       0.26784228      -0.10559158      -0.44475711
H       10.46040700       3.83447200       3.00361500  F     -11.04596638       0.38230350      -0.63422692      -0.53912094       0.34914803
O       11.91297600       3.05191500       0.00000000  F    -111.72242865      -0.47455240       0.49310109      -0.16412538      -0.45403691
H       12.04185700       2.83292500      -0.92576100  F     -11.01927376       0.11998370      -0.33121068       0.85233837       0.35114882
O       16.11393600       3.67248200       2.46165900  F    -111.63398827      -0.28716087       0.26780250      -0.10561063      -0.44475357
H       16.88959300       3.83447200       3.00361500  F     -11.04594081      -0.38229845      -0.63422711      -0.53911177       0.34914945
O       15.43702400       3.05191500       0.00000000  F    -111.72240380       0.47454960       0.49305448      -0.16406337      -0.45403285
H       15.30814300       2.83292500      -0.92576100  F     -11.01924710      -0.11998848      -0.33121397       0.85232805       0.35115031
O       18.07493100       0.27594000       2.46165900  F    -112.31608704       1.47586763       1.04016393       1.56723933      -0.52183176
H       18.60304600       0.86668300       3.00361500  F     -11.80696265      -0.34390654      -0.62907850      -0.38406559       0.29800431
O       17.19904700       0.00000000       0.00000000  F    -112.21893154      -0.15079624       0.01221460      -2.61270566      -0.51162612
H       16.94495700      -0.00211900      -0.92576100  F     -11.70242520       0.23644745      -0.02954872       0.68324057       0.30380453
O       15.63599500      -3.94842200       2.46165900  F    -111.78843759       0.49270497      -0.15612643      -0.01955386      -0.46076661
H       15.38845400      -4.70115500       3.00361500  F     -11.04405994      -0.25265889       0.61555447      -0.55192343       0.34672689
O       15.43702400      -3.05191500       0.00000000  F    -111.79486405       0.22758936      -0.68313126      -0.07127872      -0.45649720
H       15.31181400      -2.83080600      -0.92576100  F     -10.97652320      -0.10374628       0.36890237       0.84335162       0.35420809
O       11.71400500      -3.94842200       2.46165900  F    -111.78843969      -0.49267354      -0.15613890      -0.01953595      -0.46076687
H       11.96154600      -4.70115500       3.00361500  F     -11.04407506       0.25266243       0.61555141      -0.55192696       0.34672583
O       11.91297600      -3.05191500       0.00000000  F    -111.79486255      -0.22754886      -0.68317634      -0.07132016      -0.45649864
H       12.03818600      -2.83080600      -0.92576100  F     -10.97653621       0.10374979       0.36889593       0.84335722       0.35420738
O        9.27506900       0.27594000       2.46165900  F    -112.31607934      -1.47580389       1.04017086       1.56724173      -0.52182997
H        8.74695400       0.86668300       3.00361500  F     -11.80695512       0.34391008      -0.62907157      -0.38406246       0.29800476
O       10.15095300       0.00000000       0.00000000  F    -112.21890641       0.15079315       0.01225444      -2.61269096      -0.51162431
H       10.40504300      -0.00211900      -0.92576100  F     -11.70242157      -0.23644171      -0.02954526       0.68324612       0.30380501
