38
alpha-O cluster from real IZA CHA 6-ring (Fe,oxo first)
Fe 13.675000 0.000000 1.076886
O 13.675000 0.000000 -0.543114
Si 12.122888 2.681232 1.552012
Si 15.227113 2.681232 1.552012
Al 16.773071 0.003553 1.552012
Si 15.220959 -2.684785 1.552012
Si 12.129041 -2.684785 1.552012
Al 10.576929 0.003553 1.552012
O 13.675684 2.848217 1.941860
O 15.685225 1.160604 1.811911
O 16.141286 -1.424701 1.941860
O 13.675000 -2.321208 1.811911
O 11.208030 -1.423516 1.941860
O 11.664775 1.160604 1.811911
O 11.236064 3.672482 2.461659
H 10.460407 3.834472 3.003615
O 11.912976 3.051915 0.000000
H 12.041857 2.832925 -0.925761
O 16.113936 3.672482 2.461659
H 16.889593 3.834472 3.003615
O 15.437024 3.051915 0.000000
H 15.308143 2.832925 -0.925761
O 18.074931 0.275940 2.461659
H 18.603046 0.866683 3.003615
O 17.199047 0.000000 0.000000
H 16.944957 -0.002119 -0.925761
O 15.635995 -3.948422 2.461659
H 15.388454 -4.701155 3.003615
O 15.437024 -3.051915 0.000000
H 15.311814 -2.830806 -0.925761
O 11.714005 -3.948422 2.461659
H 11.961546 -4.701155 3.003615
O 11.912976 -3.051915 0.000000
H 12.038186 -2.830806 -0.925761
O 9.275069 0.275940 2.461659
H 8.746954 0.866683 3.003615
O 10.150953 0.000000 0.000000
H 10.405043 -0.002119 -0.925761
