16
[Fe4S4(SH)4]2- idealized cubane (FeMoco diary Stage 17)
Fe 0.972272 0.972272 0.972272
Fe 0.972272 -0.972272 -0.972272
Fe -0.972272 0.972272 -0.972272
Fe -0.972272 -0.972272 0.972272
S -1.285183 -1.285183 -1.285183
S -1.285183 1.285183 1.285183
S 1.285183 -1.285183 1.285183
S 1.285183 1.285183 -1.285183
S 2.271310 2.271310 2.271310
S 2.271310 -2.271310 -2.271310
S -2.271310 2.271310 -2.271310
S -2.271310 -2.271310 2.271310
H 3.044959 3.044959 3.044959
H 3.044959 -3.044959 -3.044959
H -3.044959 3.044959 -3.044959
H -3.044959 -3.044959 3.044959
