41
template: [H2Si(3-MeC5H3)2Ti-CH3]+ + propene, cc=2.0 (polyolefins issue #11)
Ti 0.000000 0.000000 0.000000
C 1.374629 0.000000 1.973797
C 1.727370 1.148804 1.217343
C 2.298116 0.710000 -0.006626
C 2.298116 -0.710000 -0.006626
C 1.727370 -1.148804 1.217343
H 1.586326 2.175945 1.519812
H 2.667374 -1.344808 -0.798502
H 1.586326 -2.175945 1.519812
C 2.810974 1.591678 -1.106454
H 2.935198 1.003414 -2.015637
H 2.098851 2.396477 -1.288881
H 3.771545 2.015822 -0.814043
C -1.374629 0.000000 1.973797
C -1.727370 -1.148804 1.217343
C -2.298116 -0.710000 -0.006626
C -2.298116 0.710000 -0.006626
C -1.727370 1.148804 1.217343
H -1.586326 -2.175945 1.519812
H -2.667374 1.344808 -0.798502
H -1.586326 2.175945 1.519812
C -2.810974 -1.591678 -1.106454
H -2.935198 -1.003414 -2.015637
H -2.098851 -2.396477 -1.288881
H -3.771545 -2.015822 -0.814043
Si 0.000000 0.000000 3.241588
H 0.000000 1.212345 4.090481
H 0.000000 -1.212345 4.090481
C 0.000000 1.548282 -1.418739
H 0.000000 1.658356 -2.503167
H -0.889982 2.022790 -1.005371
H 0.889982 2.022790 -1.005371
C 0.000000 -1.695738 -1.553857
C 0.000000 -0.366975 -1.994752
C -1.299038 0.344863 -2.230946
H -0.939638 -2.210634 -1.383011
H 0.939638 -2.210634 -1.383011
H 0.939638 0.147921 -2.165599
H -1.613691 0.193647 -3.263529
H -2.058682 -0.052427 -1.557743
H -1.168699 1.410631 -2.043198
