41
relaxed TS-point (cc=2.0), face=re, E_dft=-1760.4575123122727
Ti 0.020056 -0.093752 0.042325
C 1.374484 0.000043 1.973818
C 1.727547 1.148689 1.217329
C 2.298190 0.710034 -0.006741
C 2.298127 -0.710074 -0.006540
C 1.727506 -1.148880 1.217318
H 1.586308 2.175953 1.519753
H 2.667353 -1.344732 -0.798548
H 1.586307 -2.175917 1.519869
C 2.810926 1.591667 -1.106432
H 2.935203 1.003417 -2.015632
H 2.098854 2.396486 -1.288883
H 3.771546 2.015830 -0.814039
C -1.374366 0.000055 1.973749
C -1.727623 -1.148872 1.217213
C -2.298180 -0.709823 -0.006595
C -2.298162 0.709934 -0.006633
C -1.727656 1.148634 1.217310
H -1.586284 -2.175914 1.520002
H -2.667356 1.344753 -0.798591
H -1.586259 2.175949 1.519879
C -2.810924 -1.591768 -1.106406
H -2.935208 -1.003405 -2.015639
H -2.098856 -2.396472 -1.288895
H -3.771549 -2.015819 -0.814048
Si -0.000018 -0.000091 3.241657
H -0.000049 1.212347 4.090482
H -0.000064 -1.212345 4.090479
C -0.069063 0.881479 -2.029915
H 0.666352 1.299077 -2.738177
H -1.087426 0.978665 -2.437859
H 0.019999 1.555042 -1.115765
C 0.241894 -1.933317 -1.168199
C 0.436631 -1.032373 -2.315467
C -0.322060 -1.290477 -3.608777
H -0.623792 -2.600648 -1.243904
H 1.124027 -2.535017 -0.908169
H 1.502236 -0.829999 -2.525483
H 0.064143 -2.242635 -4.029974
H -1.409961 -1.412281 -3.463488
H -0.147702 -0.503295 -4.368248
