41
relaxed TS-point (cc=2.0), face=si, E_dft=-1760.460472693266
Ti 0.019869 -0.113471 0.058738
C 1.374486 0.000050 1.973821
C 1.727484 1.148786 1.217351
C 2.298149 0.709974 -0.006652
C 2.298128 -0.710126 -0.006489
C 1.727526 -1.148931 1.217294
H 1.586347 2.175935 1.519723
H 2.667378 -1.344715 -0.798595
H 1.586314 -2.175910 1.519796
C 2.810947 1.591655 -1.106435
H 2.935201 1.003419 -2.015638
H 2.098852 2.396487 -1.288883
H 3.771547 2.015833 -0.814042
C -1.374404 0.000060 1.973732
C -1.727623 -1.148883 1.217195
C -2.298130 -0.709765 -0.006513
C -2.298100 0.709943 -0.006520
C -1.727644 1.148657 1.217311
H -1.586259 -2.175911 1.520026
H -2.667397 1.344747 -0.798626
H -1.586279 2.175941 1.519840
C -2.810912 -1.591792 -1.106414
H -2.935222 -1.003398 -2.015638
H -2.098862 -2.396465 -1.288892
H -3.771560 -2.015819 -0.814050
Si 0.000015 -0.000034 3.241687
H -0.000084 1.212339 4.090473
H -0.000072 -1.212353 4.090468
C -0.048110 0.733925 -2.034108
H 0.810720 1.029047 -2.656993
H -0.990823 0.950300 -2.564139
H -0.024040 1.455442 -1.146661
C 0.196344 -2.049798 -1.004131
C 0.063133 -1.253682 -2.226543
C 1.143818 -1.382456 -3.288176
H 1.143296 -2.597383 -0.904885
H -0.640217 -2.714982 -0.752676
H -0.945004 -1.303184 -2.667176
H 1.108913 -2.422716 -3.674095
H 0.981429 -0.707364 -4.150251
H 2.164884 -1.215011 -2.895058
